p cnf 61 45
-1 50 -52 0 
-2 50 -52 0 
-3 51 -50 -52 0 
-4 11 14 16 21 42 46 48 50 -52 0 
-5 7 50 -52 0 
-6 22 45 51 -50 -52 0 
-7 5 -8 28 30 39 40 52 -50 0 
-7 5 -9 18 43 52 -50 0 
-10 53 -50 -52 0 
-7 5 -11 4 14 16 21 42 46 48 52 -50 0 
-12 51 -50 -52 0 
-13 25 51 -50 -52 0 
-14 4 11 16 21 42 46 48 -15 26 50 -52 0 
-16 4 11 14 21 42 46 48 -17 50 -52 0 
-18 9 43 -19 50 -52 0 
-20 52 -50 0 
-21 4 11 14 16 42 46 48 54 -50 -52 0 
-21 4 11 14 16 42 46 48 55 -50 -52 -44 0 
-22 6 45 53 -50 -52 0 
-23 50 -52 0 
-24 52 -50 0 
-25 13 -7 5 56 -50 -52 0 
-26 15 57 -50 -52 0 
-7 5 -27 -28 8 30 39 40 58 -50 -52 0 
-7 5 -29 -30 8 28 39 40 58 -50 -52 0 
-7 5 -27 -30 8 28 39 40 58 -50 -52 0 
-31 51 -50 -52 0 
-32 -33 52 -50 0 
-34 -33 52 -50 0 
-32 -35 52 -50 0 
-34 -35 52 -50 0 
-36 50 -52 0 
-5 7 -37 50 -52 0 
-38 49 50 -52 0 
-19 50 -52 0 
-39 8 28 30 40 50 -52 0 
-7 5 -27 -40 8 28 30 39 58 -50 -52 0 
-41 54 -50 -52 0 
-42 4 11 14 16 21 46 48 59 -50 -52 -24 0 
-43 9 18 55 -50 -52 -44 0 
-44 50 -52 0 
-45 6 22 52 -50 0 
-46 4 11 14 16 21 42 48 -47 60 -50 -52 0 
-48 4 11 14 16 21 42 46 61 -50 -52 0 
-7 5 -49 38 52 -50 0 
